NAME 
ROWS
 N  OBJ
 L  R0      
 L  R1      
 L  R2      
 E  R3      
 E  R4      
 E  R5      
 E  R6      
 E  R7      
 E  R8      
 E  R9      
 E  R10     
 E  R11     
 E  R12     
COLUMNS
    MARKER    'MARKER'                 'INTORG'
    I0(8)     OBJ       -125
    I0(8)     R0        -124
    I0(8)     R1        5
    I0(8)     R2        -133
    I0(8)     R3        4
    I0(8)     R4        10
    I0(8)     R5        14
    I0(8)     R6        -1
    I0(8)     R12       1
    I1(6)     OBJ       76
    I1(6)     R0        42
    I1(6)     R1        194
    I1(6)     R2        62
    I1(6)     R3        12
    I1(6)     R4        3
    I1(6)     R12       1
    I2(7)     OBJ       32
    I2(7)     R0        193
    I2(7)     R1        3
    I2(7)     R2        96
    I2(7)     R3        12
    I2(7)     R5        10
    I2(7)     R8        8
    I2(7)     R12       1
    I3(10)    OBJ       165
    I3(10)    R0        -12
    I3(10)    R1        -74
    I3(10)    R2        84
    I3(10)    R3        19
    I3(10)    R4        3
    I3(10)    R5        3
    I3(10)    R6        7
    I3(10)    R7        12
    I3(10)    R8        18
    I3(10)    R12       1
    I4(6)     OBJ       33
    I4(6)     R0        139
    I4(6)     R1        39
    I4(6)     R2        -47
    I4(6)     R3        8
    I4(6)     R4        15
    I4(6)     R12       1
    I5(8)     OBJ       31
    I5(8)     R0        74
    I5(8)     R1        -1
    I5(8)     R2        148
    I5(8)     R3        4
    I5(8)     R4        3
    I5(8)     R5        4
    I5(8)     R7        19
    I5(8)     R12       1
    MARKER    'MARKER'                 'INTEND'
    C6(7)     OBJ       4
    C6(7)     R0        -7
    C6(7)     R1        6
    C6(7)     R2        6
    C6(7)     R6        4
    C6(7)     R8        17
    C6(7)     R9        6
    C6(7)     R10       10
    C7(6)     OBJ       6
    C7(6)     R0        -7
    C7(6)     R1        5
    C7(6)     R2        7
    C7(6)     R5        2
    C7(6)     R6        11
    C7(6)     R10       5
    C8(7)     R0        4
    C8(7)     R1        1
    C8(7)     R2        -10
    C8(7)     R3        6
    C8(7)     R5        4
    C8(7)     R6        -1
    C8(7)     R7        8
    C9(5)     R0        5
    C9(5)     R1        -6
    C9(5)     R2        -9
    C9(5)     R5        5
    C9(5)     R10       7
    C10(1)    R3        1
    C11(1)    R4        1
    C12(1)    R5        1
    C13(1)    R6        1
    C14(1)    R7        1
    C15(1)    R8        1
    C16(1)    R9        1
    C17(1)    R10       1
    C18(1)    R11       1
    C19(1)    R12       1
RHS
    RHS1      R0        -248
    RHS1      R1        10
    RHS1      R2        -266
    RHS1      R3        71
    RHS1      R4        94
    RHS1      R5        75
    RHS1      R6        90
    RHS1      R7        53
    RHS1      R8        84
    RHS1      R9        84
    RHS1      R10       58
    RHS1      R11       64
    RHS1      R12       2
BOUNDS
 UP BND1      I0(8)     2
 UP BND1      I1(6)     2
 UP BND1      I2(7)     2
 UP BND1      I3(10)    2
 UP BND1      I4(6)     2
 UP BND1      I5(8)     2
ENDATA
